p edge 50 245
e 1 4
e 1 7
e 1 11
e 1 12
e 1 24
e 1 25
e 1 28
e 1 34
e 1 35
e 1 47
e 2 6
e 2 9
e 2 17
e 2 18
e 2 35
e 2 47
e 3 6
e 3 15
e 3 16
e 3 21
e 3 23
e 3 34
e 3 44
e 3 45
e 3 50
e 4 10
e 4 25
e 4 29
e 4 31
e 5 6
e 5 9
e 5 13
e 5 14
e 5 23
e 5 32
e 5 37
e 5 39
e 5 47
e 5 48
e 6 7
e 6 8
e 6 17
e 6 19
e 6 27
e 6 29
e 6 31
e 6 35
e 6 37
e 6 41
e 6 45
e 6 48
e 7 10
e 7 11
e 7 18
e 7 19
e 7 37
e 7 40
e 7 45
e 7 47
e 8 12
e 8 14
e 8 15
e 8 17
e 8 19
e 8 20
e 8 22
e 8 24
e 8 25
e 8 44
e 9 22
e 9 27
e 9 28
e 9 29
e 9 35
e 9 36
e 9 49
e 10 15
e 10 18
e 10 19
e 10 21
e 10 25
e 10 31
e 10 34
e 10 35
e 10 39
e 10 45
e 10 49
e 11 16
e 11 17
e 11 26
e 11 30
e 11 40
e 11 41
e 11 42
e 11 43
e 11 48
e 12 14
e 12 21
e 12 28
e 12 29
e 12 34
e 12 36
e 12 38
e 12 40
e 12 43
e 12 46
e 12 48
e 12 50
e 13 19
e 13 22
e 13 27
e 13 32
e 13 45
e 13 47
e 13 48
e 14 18
e 14 29
e 14 38
e 14 41
e 14 43
e 14 48
e 15 26
e 15 27
e 15 29
e 15 31
e 15 36
e 15 37
e 15 43
e 15 45
e 16 20
e 16 21
e 16 22
e 16 23
e 16 24
e 16 25
e 16 27
e 16 34
e 16 36
e 16 44
e 16 46
e 17 24
e 17 27
e 17 35
e 17 36
e 17 38
e 17 47
e 18 21
e 18 22
e 18 31
e 18 34
e 18 46
e 19 27
e 19 36
e 19 37
e 19 45
e 19 46
e 19 47
e 19 49
e 20 28
e 20 32
e 20 35
e 20 43
e 20 46
e 21 22
e 21 33
e 21 34
e 21 36
e 21 38
e 21 42
e 21 45
e 21 48
e 22 28
e 22 34
e 22 35
e 22 38
e 23 28
e 23 29
e 23 37
e 23 49
e 23 50
e 24 30
e 24 34
e 24 45
e 24 48
e 25 27
e 25 29
e 25 33
e 25 35
e 25 38
e 25 45
e 25 50
e 26 27
e 26 32
e 26 35
e 26 40
e 26 45
e 27 30
e 27 35
e 27 36
e 27 39
e 28 36
e 28 37
e 28 39
e 28 42
e 28 43
e 28 49
e 28 50
e 29 32
e 29 36
e 29 38
e 30 31
e 30 37
e 30 42
e 30 47
e 30 50
e 31 35
e 31 39
e 31 40
e 31 46
e 32 39
e 32 43
e 32 49
e 33 35
e 33 36
e 33 39
e 33 40
e 33 46
e 34 35
e 34 37
e 34 47
e 35 37
e 35 40
e 35 45
e 36 44
e 36 48
e 37 44
e 37 47
e 38 45
e 41 44
e 41 49
e 44 45
e 44 46
e 45 50
e 46 48
e 48 49
